Version identifier: 22.1.0.0 | 2022-03-09 | 1a383f8ce
CPXPARAM_Threads                                 1
CPXPARAM_MIP_Strategy_VariableSelect             3
CPXPARAM_TimeLimit                               590.63601322199997
1 of 1 MIP starts provided solutions.
MIP start 'm1' defined initial solution with objective 392.0000.
Tried aggregator 2 times.
MIP Presolve eliminated 40 rows and 1 columns.
MIP Presolve added 36 rows and 9 columns.
MIP Presolve modified 46 coefficients.
Aggregator did 9 substitutions.
Reduced MIP has 2413 rows, 10400 columns, and 189090 nonzeros.
Reduced MIP has 10400 binaries, 0 generals, 0 SOSs, and 0 indicators.
Presolve time = 0.25 sec. (369.50 ticks)
Probing time = 0.03 sec. (27.23 ticks)
Tried aggregator 1 time.
Detecting symmetries...
MIP Presolve modified 13 coefficients.
Reduced MIP has 2413 rows, 10400 columns, and 189320 nonzeros.
Reduced MIP has 10400 binaries, 0 generals, 0 SOSs, and 0 indicators.
Presolve time = 0.19 sec. (294.42 ticks)
Probing time = 0.03 sec. (27.26 ticks)
Clique table members: 1597.
MIP emphasis: balance optimality and feasibility.
MIP search method: dynamic search.
Parallel mode: none, using 1 thread.
Root relaxation solution time = 1.97 sec. (2392.40 ticks)

        Nodes                                         Cuts/
   Node  Left     Objective  IInf  Best Integer    Best Bound    ItCnt     Gap

*     0+    0                          392.0000    80200.0000              --- 
      0     0      400.0000  1516      392.0000      400.0000     5817    2.04%
      0     0      400.0000   162      392.0000    Cliques: 1     6002    2.04%
      0     0      400.0000   219      392.0000      Cuts: 60     8021    2.04%
      0     0      400.0000   353      392.0000      Cuts: 10    11958    2.04%
Detecting symmetries...
      0     2      400.0000   144      392.0000      400.0000    11958    2.04%
Elapsed time = 69.68 sec. (71522.60 ticks, tree = 0.01 MB, solutions = 1)
      1     3      400.0000   223      392.0000      400.0000    24808    2.04%
      2     4      400.0000   282      392.0000      400.0000    26351    2.04%
      3     5      400.0000   173      392.0000      400.0000    27644    2.04%
      4     6      400.0000   142      392.0000      400.0000    30869    2.04%
      5     7      400.0000   195      392.0000      400.0000    34741    2.04%
      6     8      400.0000   147      392.0000      400.0000    42706    2.04%
      7     9      400.0000   131      392.0000      400.0000    48260    2.04%
      8    10      400.0000   291      392.0000      400.0000    54518    2.04%
      9    11      400.0000   137      392.0000      400.0000    55230    2.04%
     10    12      400.0000   327      392.0000      400.0000    59811    2.04%
Elapsed time = 91.19 sec. (94033.97 ticks, tree = 0.04 MB, solutions = 1)
     12    14      400.0000   307      392.0000      400.0000    70118    2.04%
     13    15      400.0000   132      392.0000      400.0000    70655    2.04%
     14    16      400.0000   357      392.0000      400.0000    74900    2.04%
     16    18      400.0000   393      392.0000      400.0000    80757    2.04%
     18    20      400.0000   359      392.0000      400.0000    85915    2.04%
     20    22      400.0000   297      392.0000      400.0000    89396    2.04%
     22    24      400.0000   432      392.0000      400.0000    93868    2.04%
     24    26      400.0000   599      392.0000      400.0000   100200    2.04%
     26    28      400.0000   330      392.0000      400.0000   104206    2.04%
     28    30      400.0000   161      392.0000      400.0000   109254    2.04%
Elapsed time = 119.66 sec. (122909.71 ticks, tree = 0.27 MB, solutions = 1)
     30    32      400.0000   169      392.0000      400.0000   113534    2.04%
     32    34      400.0000   185      392.0000      400.0000   126349    2.04%
     34    36      400.0000   185      392.0000      400.0000   129505    2.04%
     36    38      400.0000   102      392.0000      400.0000   133135    2.04%
     37    39      400.0000   269      392.0000      400.0000   134796    2.04%
     39    41      400.0000   665      392.0000      400.0000   139315    2.04%
     41    43      400.0000   161      392.0000      400.0000   141142    2.04%
     43    45      400.0000   287      392.0000      400.0000   146775    2.04%
     44    46      400.0000   255      392.0000      400.0000   148182    2.04%
     45    47      400.0000   222      392.0000      400.0000   150213    2.04%
Elapsed time = 143.49 sec. (147113.94 ticks, tree = 0.51 MB, solutions = 1)
     46    48      400.0000   233      392.0000      400.0000   154264    2.04%
     48    50      400.0000   291      392.0000      400.0000   157645    2.04%
     49    51      400.0000   200      392.0000      400.0000   159243    2.04%
     50    52      400.0000   213      392.0000      400.0000   162184    2.04%
     52    54      400.0000   157      392.0000      400.0000   165964    2.04%
     53    55      400.0000   314      392.0000      400.0000   169022    2.04%
     54    56      400.0000   324      392.0000      400.0000   172593    2.04%
     55    57      400.0000   414      392.0000      400.0000   174851    2.04%
     57    59      400.0000   307      392.0000      400.0000   176277    2.04%
     59    61      400.0000   276      392.0000      400.0000   177736    2.04%
Elapsed time = 160.60 sec. (164034.37 ticks, tree = 0.68 MB, solutions = 1)
     60    62      400.0000   257      392.0000      400.0000   179879    2.04%
     61    63      400.0000   257      392.0000      400.0000   182398    2.04%
     63    65      400.0000   345      392.0000      400.0000   186834    2.04%
     65    67      400.0000   437      392.0000      400.0000   190418    2.04%
     67    69      400.0000   425      392.0000      400.0000   192764    2.04%
     69    71      400.0000   262      392.0000      400.0000   195374    2.04%
     70    72      400.0000   244      392.0000      400.0000   197071    2.04%
     71    73      400.0000   157      392.0000      400.0000   199573    2.04%
     72    74      400.0000   182      392.0000      400.0000   201769    2.04%
     73    75      400.0000   261      392.0000      400.0000   206409    2.04%
Elapsed time = 178.84 sec. (181756.36 ticks, tree = 0.87 MB, solutions = 1)
     74    76      400.0000   361      392.0000      400.0000   209861    2.04%
     76    78      400.0000   294      392.0000      400.0000   212147    2.04%
     77    79      400.0000   313      392.0000      400.0000   213859    2.04%
     79    81      400.0000   386      392.0000      400.0000   217212    2.04%
     80    82      400.0000   278      392.0000      400.0000   217269    2.04%
     81    83      400.0000   282      392.0000      400.0000   220232    2.04%
     83    85      400.0000   337      392.0000      400.0000   224243    2.04%
     85    87      400.0000   332      392.0000      400.0000   228669    2.04%
     87    89      400.0000   324      392.0000      400.0000   232442    2.04%
     89    91      400.0000   300      392.0000      400.0000   236777    2.04%
Elapsed time = 202.19 sec. (204394.16 ticks, tree = 1.23 MB, solutions = 1)
     90    92      400.0000   293      392.0000      400.0000   238767    2.04%
     91    93      400.0000   269      392.0000      400.0000   242234    2.04%
     92    94      400.0000   301      392.0000      400.0000   245318    2.04%
     94    96      400.0000   234      392.0000      400.0000   250240    2.04%
     95    97      400.0000   257      392.0000      400.0000   253535    2.04%
     97    99      400.0000   574      392.0000      400.0000   256844    2.04%
     99   101      400.0000   343      392.0000      400.0000   257940    2.04%
    100   102      400.0000   232      392.0000      400.0000   258723    2.04%
    101   103      400.0000   330      392.0000      400.0000   261549    2.04%
    102   104      400.0000   266      392.0000      400.0000   265269    2.04%
Elapsed time = 229.06 sec. (230241.75 ticks, tree = 1.51 MB, solutions = 1)
    103   105      400.0000   269      392.0000      400.0000   270697    2.04%
    104   106      400.0000   525      392.0000      400.0000   272424    2.04%
    106   108      400.0000   296      392.0000      400.0000   275228    2.04%
    108   110      400.0000   315      392.0000      400.0000   278432    2.04%
    109   111      400.0000   394      392.0000      400.0000   280438    2.04%
    111   113      400.0000   331      392.0000      400.0000   281748    2.04%
    112   114      400.0000   336      392.0000      400.0000   283653    2.04%
    114   116      400.0000   373      392.0000      400.0000   285646    2.04%
    116   118      400.0000   275      392.0000      400.0000   288794    2.04%
    117   119      400.0000   357      392.0000      400.0000   290798    2.04%
Elapsed time = 243.82 sec. (244734.48 ticks, tree = 1.83 MB, solutions = 1)
    119   121      400.0000   266      392.0000      400.0000   291968    2.04%
    121   123      400.0000   256      392.0000      400.0000   294624    2.04%
    122   124      400.0000   229      392.0000      400.0000   296831    2.04%
    124   126      400.0000   374      392.0000      400.0000   299335    2.04%
    125   127      400.0000   478      392.0000      400.0000   301101    2.04%
    126   128      400.0000   382      392.0000      400.0000   302898    2.04%
    128   130      400.0000   336      392.0000      400.0000   304153    2.04%
    130   132      400.0000   337      392.0000      400.0000   305458    2.04%
    131   133      400.0000   275      392.0000      400.0000   309182    2.04%
    132   134      400.0000   258      392.0000      400.0000   311274    2.04%
Elapsed time = 256.52 sec. (256935.66 ticks, tree = 2.20 MB, solutions = 1)
    134   136      400.0000   365      392.0000      400.0000   314590    2.04%
    136   138      400.0000   238      392.0000      400.0000   319168    2.04%
    138   139      400.0000   253      392.0000      400.0000   323093    2.04%
    140   141      400.0000   187      392.0000      400.0000   325252    2.04%
    141   142      400.0000   178      392.0000      400.0000   328192    2.04%
    142   143      400.0000   227      392.0000      400.0000   331790    2.04%
    143   144      400.0000   375      392.0000      400.0000   335204    2.04%
    145   146      400.0000   240      392.0000      400.0000   336616    2.04%
    146   147      400.0000   294      392.0000      400.0000   338543    2.04%
    150   150      400.0000   263      392.0000      400.0000   350070    2.04%
Elapsed time = 275.77 sec. (275316.16 ticks, tree = 2.54 MB, solutions = 1)
    154   154      400.0000   251      392.0000      400.0000   359350    2.04%
    159   158      400.0000   710      392.0000      400.0000   375591    2.04%
    161   160      400.0000   359      392.0000      400.0000   391394    2.04%
    172   170      400.0000   412      392.0000      400.0000   411063    2.04%
    182   177      400.0000   410      392.0000      400.0000   450406    2.04%
    191   186      400.0000   362      392.0000      400.0000   484806    2.04%
    200   195      400.0000   416      392.0000      400.0000   516090    2.04%
    209   204      400.0000   364      392.0000      400.0000   559880    2.04%
    219   213      400.0000   310      392.0000      400.0000   604994    2.04%
    231   224      400.0000   263      392.0000      400.0000   642169    2.04%
Elapsed time = 327.38 sec. (318988.12 ticks, tree = 4.26 MB, solutions = 1)
    246   235      400.0000   225      392.0000      400.0000   675341    2.04%
    260   244      400.0000   216      392.0000      400.0000   718157    2.04%
    272   254      400.0000   193      392.0000      400.0000   758561    2.04%
    283   261      400.0000   190      392.0000      400.0000   800274    2.04%
    293   269      400.0000   275      392.0000      400.0000   844653    2.04%
    304   277      400.0000   188      392.0000      400.0000   883214    2.04%
    318   289      400.0000   205      392.0000      400.0000   927571    2.04%
    334   299      398.9000   272      392.0000      400.0000   977132    2.04%
    350   312      400.0000    98      392.0000      400.0000  1016871    2.04%
    367   321      398.8750   200      392.0000      400.0000  1065881    2.04%
Elapsed time = 380.58 sec. (358230.85 ticks, tree = 6.50 MB, solutions = 1)
    384   334      400.0000   104      392.0000      400.0000  1113493    2.04%
    400   346      398.0000   170      392.0000      400.0000  1146811    2.04%
    418   362      398.0000    89      392.0000      400.0000  1180953    2.04%
    438   376      396.0000   134      392.0000      400.0000  1220610    2.04%
    457   386      400.0000   138      392.0000      400.0000  1257339    2.04%
    475   401      400.0000   119      392.0000      400.0000  1301757    2.04%
    487   411      398.7500   201      392.0000      400.0000  1353203    2.04%
    505   423      398.0000    93      392.0000      400.0000  1402124    2.04%
    519   437      398.0000    62      392.0000      400.0000  1442080    2.04%
    539   448      398.0000   167      392.0000      400.0000  1479674    2.04%
Elapsed time = 435.13 sec. (397370.19 ticks, tree = 9.40 MB, solutions = 1)
    565   461      396.0000   113      392.0000      400.0000  1516382    2.04%
    592   472      396.0000    78      392.0000      400.0000  1553504    2.04%
    616   484      398.0000   151      392.0000      400.0000  1588784    2.04%
    640   501      398.0000    70      392.0000      400.0000  1617552    2.04%
    661   515      396.0000    56      392.0000      400.0000  1659496    2.04%
    676   525      400.0000   112      392.0000      400.0000  1705609    2.04%
    698   543      398.0000   161      392.0000      400.0000  1732316    2.04%
    724   555    infeasible            392.0000      400.0000  1754004    2.04%
    748   567      398.0000   120      392.0000      400.0000  1788549    2.04%
    769   581      398.0000   106      392.0000      400.0000  1821600    2.04%
Elapsed time = 488.90 sec. (437032.27 ticks, tree = 12.45 MB, solutions = 1)
    795   592      398.0000   118      392.0000      400.0000  1861868    2.04%
    827   598    infeasible            392.0000      400.0000  1901652    2.04%
    867   606      397.0000   147      392.0000      400.0000  1929861    2.04%
    913   611      397.0000   152      392.0000      400.0000  1953809    2.04%
    943   617      400.0000   104      392.0000      400.0000  1990638    2.04%
    957   629      398.8750   165      392.0000      400.0000  2037415    2.04%
    972   639      398.7500   178      392.0000      400.0000  2084513    2.04%
    993   656      398.0000    91      392.0000      400.0000  2119905    2.04%
Starting limited solution polishing.
   1013   670      398.0000    65      392.0000      400.0000  2156057    2.04%
   1030   684      398.0000    80      392.0000      400.0000  2201376    2.04%
Elapsed time = 542.74 sec. (476277.83 ticks, tree = 14.82 MB, solutions = 1)
   1047   701      398.0000    60      392.0000      400.0000  2239450    2.04%
   1063   715      398.0000    41      392.0000      400.0000  2282815    2.04%
   1089   729      398.0000   139      392.0000      400.0000  2313675    2.04%
   1112   746      398.0000    72      392.0000      400.0000  2336368    2.04%
   1133   759      400.0000   117      392.0000      400.0000  2379095    2.04%
   1150   769      400.0000   131      392.0000      400.0000  2423201    2.04%
   1170   784      398.0000   143      392.0000      400.0000  2459883    2.04%
   1196   805      398.0000   161      392.0000      400.0000  2482461    2.04%

Clique cuts applied:  11
Cover cuts applied:  1
Zero-half cuts applied:  6

Root node processing (before b&c):
  Real time             =   69.50 sec. (71371.22 ticks)
Sequential b&c:
  Real time             =  521.15 sec. (440113.10 ticks)
                          ------------
Total (root+branch&cut) =  590.65 sec. (511484.32 ticks)
Primal:	392
Dual:	400
Status:	Feasible
Time:	590.67
Sequence:
	21
	9
	0
	21
	5
	16
	5
	21
	2
	21
	5
	12
	11
	20
	0
	23
	7
	14
	5
	23
	0
	21
	7
	16
	5
	20
	2
	21
	7
	16
	5
	5
	18
	5
	15
	9
	5
	12
	9
	21
	1
	23
	6
	12
	7
	16
	5
	5
	18
	8
	12
	9
	20
	1
	23
	5
	14
	9
	21
	0
	23
	5
	14
	9
	12
	7
	23
	0
	21
	5
	18
	5
	5
	16
	7
	7
	16
	5
	5
	12
	11
	14
	5
	10
	12
	5
	23
	1
	21
	6
	16
	5
	21
	3
	12
	5
	23
	1
	21
	9
	12
	5
	23
	1
	21
	10
	12
	5
	16
	7
	14
	9
	13
	5
	18
	7
	12
	9
	13
	7
	16
	5
	20
	3
	21
	5
	16
	6
	20
	3
	21
	5
	12
	9
	21
	0
	21
	9
	12
	7
	23
	1
	20
	9
	14
	6
	16
	7
	20
	3
	20
	5
	16
	1
	20
	7
	16
	5
	7
	16
	5
	14
	6
	23
	1
	20
	5
	18
	6
	20
	3
	20
	7
	16
	5
	21
	0
	23
	7
	12
	5
	9
	15
	5
	18
	5
	12
	11
	20
	0
	18
	5
	20
	1
	20
	10
	14
	5
	16
	7
	20
	4
	20
	5
	18
	5
	7
	16
	5
	13
	11
	20
	1
	20
	9
	14
	5
	16
	5
	21
	3
	20
	5
	13
	11
	12
	7
	23
	0
	21
	9
	14
	5
	23
	1
	20
	5
	17
	7
	20
	3
	20
	5
	3
	20
	7
	13
	9
	20
	1
	23
	7
	13
	9
	20
	1
	23
	8
	12
	9
	20
	1
	23
	7
	12
	9
	6
	12
	11
	20
	1
	23
	6
	1
	20
	9
	14
	6
	23
	1
	20
	9
	12
	6
	23
	1
	21
	9
	12
	5
	21
	1
	20
	9
	12
	7
	21
	2
	20
	5
	18
	7
	20
	0
	20
	9
	1
	20
	8
	12
	9
	20
	1
	23
	5
	12
	11
	20
	1
	23
	6
	12
	9
	21
	1
	20
	9
	13
	7
	11
	12
	5
	16
	7
	13
	9
	7
	12
	11
	5
	12
	11
	20
	0
	21
	5
	18
	5
	20
	2
	21
	5
	12
	7
	23
	1
	20
	9
	12
	7
	11
	13
	5
	23
	1
	20
	7
	16
	6
	14
	9
	20
	1
	23
	7
	13
	5
	12
	11
	21
	0
	20
	9
	12
	7
	12
	11
	13
	5
	12
	11
	21
